row=5;
column=5;
left=[5, 7, 8, 0, 10];
right=[0, 9, 0, 0, 8];
top=[5, 8, 9, 14, 10];
bottom=[10, 9, 10, 0, 8];
Board=[|0,0,0,2,1|0,0,1,3,4|3,0,0,0,2|0,2,3,0,0|1,0,0,5,0|]